NAME 
OBJSENSE MAX
ROWS
 N  OBJ
 L  packing[0]
 L  packing[1]
 L  packing[2]
 L  packing[3]
 L  packing[4]
 L  packing[5]
 L  packing[6]
 L  packing[7]
 L  packing[8]
 L  packing[9]
 L  packing[10]
 L  packing[11]
 L  packing[12]
 L  packing[13]
 L  packing[14]
 L  packing[15]
 L  packing[16]
 L  packing[17]
 L  packing[18]
 L  packing[19]
 L  packing[20]
 L  packing[21]
 L  packing[22]
 L  packing[23]
 L  packing[24]
 L  packing[25]
 L  packing[26]
 L  packing[27]
 L  packing[28]
 L  packing[29]
 L  packing[30]
 L  packing[31]
 L  packing[32]
 L  packing[33]
 L  packing[34]
 L  packing[35]
 L  packing[36]
 L  packing[37]
 L  packing[38]
 L  packing[39]
 L  packing[40]
 L  packing[41]
 L  packing[42]
 L  packing[43]
 L  packing[44]
 L  packing[45]
 L  packing[46]
 L  packing[47]
 L  packing[48]
 L  packing[49]
 L  R55     
COLUMNS
    MARKER    'MARKER'                 'INTORG'
    x[1]      OBJ       53
    x[1]      packing[3]  88
    x[1]      packing[4]  85
    x[1]      packing[6]  59
    x[1]      packing[7]  81
    x[1]      packing[9]  96
    x[1]      packing[10]  137
    x[1]      packing[11]  51
    x[1]      packing[12]  95
    x[1]      packing[13]  89
    x[1]      packing[14]  81
    x[1]      packing[15]  67
    x[1]      packing[16]  192
    x[1]      packing[17]  91
    x[1]      packing[18]  56
    x[1]      packing[20]  170
    x[1]      packing[22]  172
    x[1]      packing[23]  87
    x[1]      packing[24]  187
    x[1]      packing[25]  1
    x[1]      packing[27]  70
    x[1]      packing[30]  158
    x[1]      packing[32]  33
    x[1]      packing[34]  69
    x[1]      packing[35]  135
    x[1]      packing[36]  31
    x[1]      packing[40]  64
    x[1]      packing[41]  159
    x[1]      packing[42]  113
    x[1]      packing[43]  44
    x[1]      packing[44]  70
    x[1]      packing[45]  101
    x[1]      packing[46]  52
    x[1]      packing[47]  36
    x[1]      packing[48]  55
    x[1]      packing[49]  189
    x[2]      OBJ       161
    x[2]      packing[0]  59
    x[2]      packing[2]  9
    x[2]      packing[3]  59
    x[2]      packing[4]  183
    x[2]      packing[5]  32
    x[2]      packing[6]  73
    x[2]      packing[7]  110
    x[2]      packing[8]  113
    x[2]      packing[9]  121
    x[2]      packing[10]  10
    x[2]      packing[11]  90
    x[2]      packing[12]  115
    x[2]      packing[15]  87
    x[2]      packing[16]  38
    x[2]      packing[17]  27
    x[2]      packing[18]  64
    x[2]      packing[19]  136
    x[2]      packing[21]  151
    x[2]      packing[23]  94
    x[2]      packing[25]  116
    x[2]      packing[26]  26
    x[2]      packing[27]  125
    x[2]      packing[28]  132
    x[2]      packing[29]  25
    x[2]      packing[30]  140
    x[2]      packing[31]  111
    x[2]      packing[34]  118
    x[2]      packing[35]  111
    x[2]      packing[36]  22
    x[2]      packing[37]  3
    x[2]      packing[38]  163
    x[2]      packing[39]  12
    x[2]      packing[40]  22
    x[2]      packing[41]  100
    x[2]      packing[42]  32
    x[2]      packing[43]  179
    x[2]      packing[44]  133
    x[2]      packing[46]  152
    x[2]      packing[48]  106
    x[3]      OBJ       195
    x[3]      packing[0]  75
    x[3]      packing[1]  182
    x[3]      packing[4]  184
    x[3]      packing[5]  58
    x[3]      packing[7]  29
    x[3]      packing[10]  107
    x[3]      packing[11]  36
    x[3]      packing[12]  32
    x[3]      packing[13]  114
    x[3]      packing[14]  56
    x[3]      packing[15]  195
    x[3]      packing[16]  40
    x[3]      packing[18]  111
    x[3]      packing[20]  195
    x[3]      packing[23]  184
    x[3]      packing[24]  135
    x[3]      packing[25]  191
    x[3]      packing[26]  32
    x[3]      packing[27]  99
    x[3]      packing[31]  14
    x[3]      packing[32]  81
    x[3]      packing[33]  136
    x[3]      packing[34]  192
    x[3]      packing[35]  139
    x[3]      packing[36]  160
    x[3]      packing[37]  167
    x[3]      packing[38]  118
    x[3]      packing[39]  31
    x[3]      packing[40]  77
    x[3]      packing[41]  116
    x[3]      packing[42]  141
    x[3]      packing[43]  118
    x[3]      packing[44]  129
    x[3]      packing[46]  155
    x[3]      packing[47]  167
    x[3]      packing[48]  134
    x[3]      packing[49]  166
    x[4]      OBJ       141
    x[4]      packing[0]  164
    x[4]      packing[1]  1
    x[4]      packing[2]  182
    x[4]      packing[3]  41
    x[4]      packing[4]  100
    x[4]      packing[5]  24
    x[4]      packing[7]  104
    x[4]      packing[8]  57
    x[4]      packing[9]  149
    x[4]      packing[10]  49
    x[4]      packing[12]  114
    x[4]      packing[13]  158
    x[4]      packing[14]  103
    x[4]      packing[15]  48
    x[4]      packing[19]  199
    x[4]      packing[20]  106
    x[4]      packing[21]  148
    x[4]      packing[22]  43
    x[4]      packing[23]  183
    x[4]      packing[24]  68
    x[4]      packing[30]  37
    x[4]      packing[31]  103
    x[4]      packing[32]  160
    x[4]      packing[33]  17
    x[4]      packing[34]  41
    x[4]      packing[36]  13
    x[4]      packing[37]  48
    x[4]      packing[38]  139
    x[4]      packing[39]  97
    x[4]      packing[40]  111
    x[4]      packing[41]  18
    x[4]      packing[42]  17
    x[4]      packing[44]  169
    x[4]      packing[47]  77
    x[4]      packing[48]  40
    x[4]      packing[49]  42
    x[5]      OBJ       29
    x[5]      packing[0]  130
    x[5]      packing[2]  39
    x[5]      packing[3]  18
    x[5]      packing[4]  51
    x[5]      packing[5]  127
    x[5]      packing[7]  192
    x[5]      packing[8]  91
    x[5]      packing[10]  162
    x[5]      packing[11]  15
    x[5]      packing[12]  101
    x[5]      packing[13]  108
    x[5]      packing[19]  155
    x[5]      packing[20]  189
    x[5]      packing[21]  146
    x[5]      packing[22]  186
    x[5]      packing[23]  178
    x[5]      packing[24]  8
    x[5]      packing[26]  41
    x[5]      packing[27]  47
    x[5]      packing[28]  110
    x[5]      packing[29]  90
    x[5]      packing[33]  118
    x[5]      packing[34]  47
    x[5]      packing[35]  85
    x[5]      packing[36]  96
    x[5]      packing[37]  60
    x[5]      packing[39]  118
    x[5]      packing[40]  124
    x[5]      packing[41]  122
    x[5]      packing[42]  32
    x[5]      packing[45]  71
    x[5]      packing[47]  40
    x[5]      packing[49]  191
    x[6]      OBJ       93
    x[6]      packing[0]  34
    x[6]      packing[1]  199
    x[6]      packing[4]  160
    x[6]      packing[5]  66
    x[6]      packing[6]  24
    x[6]      packing[8]  159
    x[6]      packing[9]  111
    x[6]      packing[11]  6
    x[6]      packing[12]  180
    x[6]      packing[13]  8
    x[6]      packing[14]  28
    x[6]      packing[15]  41
    x[6]      packing[17]  83
    x[6]      packing[18]  97
    x[6]      packing[19]  127
    x[6]      packing[21]  185
    x[6]      packing[23]  157
    x[6]      packing[24]  173
    x[6]      packing[25]  59
    x[6]      packing[26]  150
    x[6]      packing[27]  93
    x[6]      packing[29]  4
    x[6]      packing[30]  133
    x[6]      packing[32]  156
    x[6]      packing[33]  95
    x[6]      packing[34]  188
    x[6]      packing[35]  62
    x[6]      packing[37]  104
    x[6]      packing[40]  126
    x[6]      packing[42]  129
    x[6]      packing[43]  159
    x[6]      packing[44]  173
    x[6]      packing[45]  20
    x[6]      packing[46]  94
    x[6]      packing[47]  194
    x[6]      packing[48]  35
    x[6]      packing[49]  171
    x[7]      OBJ       188
    x[7]      packing[0]  198
    x[7]      packing[4]  162
    x[7]      packing[5]  47
    x[7]      packing[6]  74
    x[7]      packing[7]  23
    x[7]      packing[8]  113
    x[7]      packing[9]  124
    x[7]      packing[10]  142
    x[7]      packing[12]  47
    x[7]      packing[13]  38
    x[7]      packing[14]  105
    x[7]      packing[15]  127
    x[7]      packing[16]  191
    x[7]      packing[18]  22
    x[7]      packing[19]  154
    x[7]      packing[22]  34
    x[7]      packing[23]  82
    x[7]      packing[24]  172
    x[7]      packing[25]  174
    x[7]      packing[30]  101
    x[7]      packing[31]  17
    x[7]      packing[32]  145
    x[7]      packing[33]  176
    x[7]      packing[34]  18
    x[7]      packing[35]  99
    x[7]      packing[37]  124
    x[7]      packing[39]  191
    x[7]      packing[41]  22
    x[7]      packing[42]  148
    x[7]      packing[47]  9
    x[7]      packing[48]  165
    x[7]      packing[49]  73
    x[8]      OBJ       81
    x[8]      packing[1]  35
    x[8]      packing[2]  41
    x[8]      packing[4]  77
    x[8]      packing[5]  113
    x[8]      packing[6]  46
    x[8]      packing[7]  52
    x[8]      packing[8]  53
    x[8]      packing[9]  160
    x[8]      packing[10]  130
    x[8]      packing[11]  111
    x[8]      packing[12]  65
    x[8]      packing[14]  46
    x[8]      packing[16]  179
    x[8]      packing[19]  50
    x[8]      packing[20]  141
    x[8]      packing[21]  42
    x[8]      packing[22]  22
    x[8]      packing[25]  69
    x[8]      packing[26]  5
    x[8]      packing[27]  86
    x[8]      packing[28]  111
    x[8]      packing[30]  150
    x[8]      packing[31]  137
    x[8]      packing[33]  57
    x[8]      packing[34]  135
    x[8]      packing[35]  7
    x[8]      packing[36]  184
    x[8]      packing[38]  160
    x[8]      packing[40]  90
    x[8]      packing[43]  47
    x[8]      packing[44]  132
    x[8]      packing[46]  95
    x[8]      packing[48]  113
    x[8]      packing[49]  130
    x[9]      OBJ       37
    x[9]      packing[0]  16
    x[9]      packing[1]  103
    x[9]      packing[2]  114
    x[9]      packing[3]  176
    x[9]      packing[4]  17
    x[9]      packing[5]  60
    x[9]      packing[6]  62
    x[9]      packing[7]  164
    x[9]      packing[8]  183
    x[9]      packing[10]  39
    x[9]      packing[11]  163
    x[9]      packing[12]  8
    x[9]      packing[13]  68
    x[9]      packing[14]  193
    x[9]      packing[15]  186
    x[9]      packing[16]  81
    x[9]      packing[17]  32
    x[9]      packing[18]  181
    x[9]      packing[19]  118
    x[9]      packing[20]  114
    x[9]      packing[21]  52
    x[9]      packing[23]  66
    x[9]      packing[24]  24
    x[9]      packing[25]  4
    x[9]      packing[26]  48
    x[9]      packing[27]  131
    x[9]      packing[28]  28
    x[9]      packing[30]  95
    x[9]      packing[32]  105
    x[9]      packing[33]  192
    x[9]      packing[34]  3
    x[9]      packing[35]  189
    x[9]      packing[36]  38
    x[9]      packing[37]  60
    x[9]      packing[38]  129
    x[9]      packing[39]  134
    x[9]      packing[41]  55
    x[9]      packing[42]  123
    x[9]      packing[43]  93
    x[9]      packing[44]  30
    x[9]      packing[45]  96
    x[9]      packing[47]  101
    x[9]      packing[48]  21
    x[9]      packing[49]  45
    x[10]     OBJ       27
    x[10]     packing[1]  135
    x[10]     packing[2]  63
    x[10]     packing[3]  26
    x[10]     packing[4]  177
    x[10]     packing[5]  116
    x[10]     packing[8]  2
    x[10]     packing[9]  12
    x[10]     packing[10]  153
    x[10]     packing[11]  50
    x[10]     packing[12]  104
    x[10]     packing[14]  171
    x[10]     packing[15]  29
    x[10]     packing[16]  145
    x[10]     packing[18]  45
    x[10]     packing[19]  142
    x[10]     packing[20]  156
    x[10]     packing[22]  134
    x[10]     packing[23]  14
    x[10]     packing[24]  58
    x[10]     packing[25]  72
    x[10]     packing[29]  97
    x[10]     packing[30]  27
    x[10]     packing[31]  45
    x[10]     packing[32]  182
    x[10]     packing[34]  19
    x[10]     packing[35]  177
    x[10]     packing[37]  197
    x[10]     packing[38]  160
    x[10]     packing[39]  120
    x[10]     packing[40]  85
    x[10]     packing[42]  26
    x[10]     packing[43]  77
    x[10]     packing[45]  88
    x[10]     packing[49]  168
    x[11]     OBJ       194
    x[11]     packing[0]  91
    x[11]     packing[1]  127
    x[11]     packing[3]  93
    x[11]     packing[4]  42
    x[11]     packing[5]  93
    x[11]     packing[6]  101
    x[11]     packing[8]  184
    x[11]     packing[10]  52
    x[11]     packing[11]  43
    x[11]     packing[12]  102
    x[11]     packing[13]  132
    x[11]     packing[14]  86
    x[11]     packing[15]  175
    x[11]     packing[17]  119
    x[11]     packing[19]  44
    x[11]     packing[20]  63
    x[11]     packing[22]  44
    x[11]     packing[23]  117
    x[11]     packing[24]  125
    x[11]     packing[25]  162
    x[11]     packing[26]  15
    x[11]     packing[28]  111
    x[11]     packing[29]  143
    x[11]     packing[30]  48
    x[11]     packing[31]  105
    x[11]     packing[32]  58
    x[11]     packing[34]  8
    x[11]     packing[35]  97
    x[11]     packing[38]  66
    x[11]     packing[39]  52
    x[11]     packing[41]  37
    x[11]     packing[43]  86
    x[11]     packing[44]  72
    x[11]     packing[45]  44
    x[11]     packing[46]  154
    x[11]     packing[48]  99
    x[11]     R55       1
    x[12]     OBJ       43
    x[12]     packing[0]  15
    x[12]     packing[1]  92
    x[12]     packing[2]  37
    x[12]     packing[3]  156
    x[12]     packing[4]  48
    x[12]     packing[5]  4
    x[12]     packing[7]  135
    x[12]     packing[10]  177
    x[12]     packing[11]  161
    x[12]     packing[12]  90
    x[12]     packing[13]  150
    x[12]     packing[15]  122
    x[12]     packing[16]  41
    x[12]     packing[18]  167
    x[12]     packing[20]  80
    x[12]     packing[22]  4
    x[12]     packing[23]  16
    x[12]     packing[24]  128
    x[12]     packing[26]  53
    x[12]     packing[27]  38
    x[12]     packing[28]  199
    x[12]     packing[29]  145
    x[12]     packing[30]  102
    x[12]     packing[31]  156
    x[12]     packing[33]  127
    x[12]     packing[34]  4
    x[12]     packing[35]  171
    x[12]     packing[36]  133
    x[12]     packing[37]  66
    x[12]     packing[38]  139
    x[12]     packing[39]  131
    x[12]     packing[40]  139
    x[12]     packing[41]  192
    x[12]     packing[42]  65
    x[12]     packing[43]  180
    x[12]     packing[46]  169
    x[12]     packing[48]  6
    x[12]     packing[49]  63
    x[12]     R55       1
    x[13]     OBJ       110
    x[13]     packing[0]  112
    x[13]     packing[1]  55
    x[13]     packing[2]  93
    x[13]     packing[3]  124
    x[13]     packing[4]  196
    x[13]     packing[5]  153
    x[13]     packing[7]  55
    x[13]     packing[10]  196
    x[13]     packing[11]  71
    x[13]     packing[12]  43
    x[13]     packing[13]  185
    x[13]     packing[15]  67
    x[13]     packing[16]  87
    x[13]     packing[18]  95
    x[13]     packing[19]  65
    x[13]     packing[20]  80
    x[13]     packing[23]  10
    x[13]     packing[24]  106
    x[13]     packing[25]  164
    x[13]     packing[27]  155
    x[13]     packing[28]  145
    x[13]     packing[30]  34
    x[13]     packing[31]  90
    x[13]     packing[32]  20
    x[13]     packing[33]  4
    x[13]     packing[34]  93
    x[13]     packing[35]  20
    x[13]     packing[37]  83
    x[13]     packing[38]  24
    x[13]     packing[39]  7
    x[13]     packing[40]  150
    x[13]     packing[42]  42
    x[13]     packing[43]  101
    x[13]     packing[45]  57
    x[13]     packing[46]  185
    x[13]     packing[48]  84
    x[13]     packing[49]  69
    x[14]     OBJ       5
    x[14]     packing[0]  151
    x[14]     packing[1]  17
    x[14]     packing[2]  139
    x[14]     packing[3]  139
    x[14]     packing[4]  125
    x[14]     packing[7]  138
    x[14]     packing[9]  11
    x[14]     packing[10]  179
    x[14]     packing[11]  163
    x[14]     packing[12]  41
    x[14]     packing[13]  52
    x[14]     packing[14]  74
    x[14]     packing[15]  83
    x[14]     packing[16]  40
    x[14]     packing[17]  22
    x[14]     packing[19]  43
    x[14]     packing[22]  25
    x[14]     packing[23]  39
    x[14]     packing[24]  184
    x[14]     packing[25]  177
    x[14]     packing[26]  47
    x[14]     packing[28]  74
    x[14]     packing[29]  55
    x[14]     packing[30]  99
    x[14]     packing[31]  71
    x[14]     packing[32]  79
    x[14]     packing[33]  95
    x[14]     packing[35]  59
    x[14]     packing[36]  121
    x[14]     packing[37]  50
    x[14]     packing[38]  84
    x[14]     packing[39]  19
    x[14]     packing[40]  165
    x[14]     packing[41]  21
    x[14]     packing[44]  133
    x[14]     packing[46]  99
    x[14]     packing[48]  47
    x[15]     OBJ       184
    x[15]     packing[1]  108
    x[15]     packing[5]  121
    x[15]     packing[6]  192
    x[15]     packing[8]  69
    x[15]     packing[9]  14
    x[15]     packing[10]  193
    x[15]     packing[13]  116
    x[15]     packing[14]  146
    x[15]     packing[15]  62
    x[15]     packing[17]  68
    x[15]     packing[18]  23
    x[15]     packing[19]  104
    x[15]     packing[20]  20
    x[15]     packing[22]  35
    x[15]     packing[23]  95
    x[15]     packing[24]  111
    x[15]     packing[25]  31
    x[15]     packing[26]  131
    x[15]     packing[27]  1
    x[15]     packing[28]  121
    x[15]     packing[30]  186
    x[15]     packing[31]  87
    x[15]     packing[32]  31
    x[15]     packing[33]  1
    x[15]     packing[34]  100
    x[15]     packing[35]  77
    x[15]     packing[36]  61
    x[15]     packing[38]  2
    x[15]     packing[41]  46
    x[15]     packing[42]  160
    x[15]     packing[43]  31
    x[15]     packing[44]  179
    x[15]     packing[45]  73
    x[15]     packing[46]  114
    x[15]     packing[47]  136
    x[15]     packing[48]  96
    x[15]     packing[49]  88
    x[16]     OBJ       185
    x[16]     packing[0]  51
    x[16]     packing[1]  41
    x[16]     packing[3]  20
    x[16]     packing[4]  106
    x[16]     packing[5]  9
    x[16]     packing[6]  98
    x[16]     packing[8]  144
    x[16]     packing[9]  138
    x[16]     packing[10]  86
    x[16]     packing[11]  66
    x[16]     packing[12]  74
    x[16]     packing[13]  65
    x[16]     packing[15]  80
    x[16]     packing[16]  66
    x[16]     packing[17]  141
    x[16]     packing[18]  117
    x[16]     packing[19]  41
    x[16]     packing[20]  34
    x[16]     packing[21]  195
    x[16]     packing[22]  60
    x[16]     packing[23]  171
    x[16]     packing[24]  135
    x[16]     packing[25]  60
    x[16]     packing[26]  188
    x[16]     packing[27]  107
    x[16]     packing[28]  12
    x[16]     packing[29]  168
    x[16]     packing[30]  190
    x[16]     packing[31]  179
    x[16]     packing[32]  93
    x[16]     packing[33]  43
    x[16]     packing[35]  51
    x[16]     packing[36]  191
    x[16]     packing[37]  35
    x[16]     packing[38]  107
    x[16]     packing[39]  71
    x[16]     packing[42]  65
    x[16]     packing[43]  68
    x[16]     packing[44]  96
    x[16]     packing[45]  68
    x[16]     packing[46]  46
    x[16]     packing[47]  109
    x[16]     packing[48]  38
    x[16]     packing[49]  136
    x[16]     R55       1
    x[17]     OBJ       53
    x[17]     packing[0]  190
    x[17]     packing[1]  66
    x[17]     packing[3]  189
    x[17]     packing[4]  16
    x[17]     packing[5]  177
    x[17]     packing[7]  131
    x[17]     packing[8]  10
    x[17]     packing[10]  39
    x[17]     packing[11]  28
    x[17]     packing[13]  52
    x[17]     packing[14]  170
    x[17]     packing[15]  158
    x[17]     packing[16]  10
    x[17]     packing[17]  102
    x[17]     packing[20]  152
    x[17]     packing[22]  10
    x[17]     packing[23]  118
    x[17]     packing[24]  133
    x[17]     packing[25]  152
    x[17]     packing[26]  29
    x[17]     packing[27]  162
    x[17]     packing[29]  13
    x[17]     packing[30]  57
    x[17]     packing[32]  21
    x[17]     packing[33]  179
    x[17]     packing[34]  197
    x[17]     packing[36]  8
    x[17]     packing[38]  60
    x[17]     packing[39]  50
    x[17]     packing[41]  57
    x[17]     packing[43]  116
    x[17]     packing[44]  6
    x[17]     packing[45]  49
    x[17]     packing[46]  21
    x[17]     packing[47]  27
    x[17]     packing[49]  120
    x[18]     OBJ       7
    x[18]     packing[0]  166
    x[18]     packing[2]  84
    x[18]     packing[4]  135
    x[18]     packing[5]  68
    x[18]     packing[6]  150
    x[18]     packing[7]  51
    x[18]     packing[8]  198
    x[18]     packing[9]  121
    x[18]     packing[10]  183
    x[18]     packing[11]  62
    x[18]     packing[12]  28
    x[18]     packing[13]  25
    x[18]     packing[14]  8
    x[18]     packing[15]  141
    x[18]     packing[16]  186
    x[18]     packing[17]  175
    x[18]     packing[20]  4
    x[18]     packing[21]  21
    x[18]     packing[23]  53
    x[18]     packing[24]  64
    x[18]     packing[26]  139
    x[18]     packing[27]  184
    x[18]     packing[29]  103
    x[18]     packing[30]  38
    x[18]     packing[31]  136
    x[18]     packing[33]  77
    x[18]     packing[34]  159
    x[18]     packing[35]  27
    x[18]     packing[36]  163
    x[18]     packing[37]  68
    x[18]     packing[38]  44
    x[18]     packing[39]  124
    x[18]     packing[41]  166
    x[18]     packing[42]  90
    x[18]     packing[45]  97
    x[18]     packing[46]  2
    x[18]     packing[48]  14
    x[18]     packing[49]  61
    x[19]     OBJ       102
    x[19]     packing[0]  172
    x[19]     packing[1]  130
    x[19]     packing[2]  80
    x[19]     packing[4]  12
    x[19]     packing[5]  153
    x[19]     packing[6]  189
    x[19]     packing[7]  166
    x[19]     packing[8]  103
    x[19]     packing[9]  138
    x[19]     packing[12]  71
    x[19]     packing[15]  160
    x[19]     packing[16]  96
    x[19]     packing[17]  78
    x[19]     packing[18]  37
    x[19]     packing[19]  27
    x[19]     packing[20]  130
    x[19]     packing[21]  77
    x[19]     packing[22]  186
    x[19]     packing[23]  27
    x[19]     packing[24]  179
    x[19]     packing[25]  55
    x[19]     packing[26]  95
    x[19]     packing[27]  198
    x[19]     packing[28]  79
    x[19]     packing[29]  52
    x[19]     packing[30]  126
    x[19]     packing[31]  76
    x[19]     packing[32]  187
    x[19]     packing[33]  31
    x[19]     packing[35]  194
    x[19]     packing[37]  114
    x[19]     packing[38]  190
    x[19]     packing[39]  12
    x[19]     packing[40]  175
    x[19]     packing[41]  199
    x[19]     packing[44]  141
    x[20]     OBJ       176
    x[20]     packing[0]  85
    x[20]     packing[1]  118
    x[20]     packing[2]  142
    x[20]     packing[4]  187
    x[20]     packing[5]  170
    x[20]     packing[6]  94
    x[20]     packing[7]  146
    x[20]     packing[9]  134
    x[20]     packing[10]  101
    x[20]     packing[12]  41
    x[20]     packing[14]  35
    x[20]     packing[15]  31
    x[20]     packing[16]  153
    x[20]     packing[18]  72
    x[20]     packing[19]  181
    x[20]     packing[20]  15
    x[20]     packing[21]  34
    x[20]     packing[22]  106
    x[20]     packing[23]  108
    x[20]     packing[24]  192
    x[20]     packing[25]  185
    x[20]     packing[27]  138
    x[20]     packing[28]  169
    x[20]     packing[29]  88
    x[20]     packing[31]  106
    x[20]     packing[32]  5
    x[20]     packing[34]  117
    x[20]     packing[35]  123
    x[20]     packing[37]  180
    x[20]     packing[39]  99
    x[20]     packing[40]  120
    x[20]     packing[41]  96
    x[20]     packing[42]  76
    x[20]     packing[43]  25
    x[20]     packing[44]  118
    x[20]     packing[46]  56
    x[20]     packing[47]  7
    x[20]     packing[49]  47
    x[20]     R55       1
    MARKER    'MARKER'                 'INTEND'
RHS
    RHS1      packing[0]  855
    RHS1      packing[1]  705
    RHS1      packing[2]  512
    RHS1      packing[3]  565
    RHS1      packing[4]  1032
    RHS1      packing[5]  796
    RHS1      packing[6]  581
    RHS1      packing[7]  789
    RHS1      packing[8]  740
    RHS1      packing[9]  665
    RHS1      packing[10]  1068
    RHS1      packing[11]  558
    RHS1      packing[12]  676
    RHS1      packing[13]  680
    RHS1      packing[14]  651
    RHS1      packing[15]  930
    RHS1      packing[16]  773
    RHS1      packing[17]  469
    RHS1      packing[18]  544
    RHS1      packing[19]  793
    RHS1      packing[20]  825
    RHS1      packing[21]  526
    RHS1      packing[22]  531
    RHS1      packing[23]  900
    RHS1      packing[24]  1091
    RHS1      packing[25]  836
    RHS1      packing[26]  500
    RHS1      packing[27]  817
    RHS1      packing[28]  646
    RHS1      packing[29]  492
    RHS1      packing[30]  861
    RHS1      packing[31]  717
    RHS1      packing[32]  678
    RHS1      packing[33]  674
    RHS1      packing[34]  754
    RHS1      packing[35]  912
    RHS1      packing[36]  611
    RHS1      packing[37]  680
    RHS1      packing[38]  793
    RHS1      packing[39]  634
    RHS1      packing[40]  724
    RHS1      packing[41]  703
    RHS1      packing[42]  630
    RHS1      packing[43]  662
    RHS1      packing[44]  791
    RHS1      packing[45]  382
    RHS1      packing[46]  697
    RHS1      packing[47]  452
    RHS1      packing[48]  527
    RHS1      packing[49]  880
    RHS1      R55       3
BOUNDS
 BV BND1      x[1]    
 BV BND1      x[2]    
 BV BND1      x[3]    
 BV BND1      x[4]    
 BV BND1      x[5]    
 BV BND1      x[6]    
 BV BND1      x[7]    
 BV BND1      x[8]    
 BV BND1      x[9]    
 BV BND1      x[10]   
 BV BND1      x[11]   
 BV BND1      x[12]   
 BV BND1      x[13]   
 BV BND1      x[14]   
 BV BND1      x[15]   
 BV BND1      x[16]   
 BV BND1      x[17]   
 BV BND1      x[18]   
 BV BND1      x[19]   
 BV BND1      x[20]   
ENDATA
